\ LP format - for model browsing. Use MPS format to capture full model detail.
\ Signature: 0x21e65cbbc33849d5
Minimize
  79.45344 SCM[0,0] + 79.45344 SCM[0,1] + 3.3822888 SCM[0,2]
   + 3.3822888 SCM[0,3] + 3.3822888 SCM[0,4] + 1.572516 SCM[0,5]
   + 0.386232 SCM[0,6] + 49.19904 SCM[1,0] + 49.19904 SCM[1,1]
   + 2.0943758 SCM[1,2] + 2.0943758 SCM[1,3] + 2.0943758 SCM[1,4]
   + 0.973731 SCM[1,5] + 0.239162 SCM[1,6] + 43.7184 SCM[2,0]
   + 43.7184 SCM[2,1] + 1.861068 SCM[2,2] + 1.861068 SCM[2,3]
   + 1.861068 SCM[2,4] + 0.86526 SCM[2,5] + 0.21252 SCM[2,6]
   + 68.112 SCM[3,0] + 68.112 SCM[3,1] + 2.89949 SCM[3,2]
   + 2.89949 SCM[3,3] + 2.89949 SCM[3,4] + 1.34805 SCM[3,5]
   + 0.3311 SCM[3,6] + 0.040458 SCM[4,2] + 0.040458 SCM[4,3]
   + 0.040458 SCM[4,4] + 21.8592 SCM[5,0] + 21.8592 SCM[5,1]
   + 0.10626 SCM[5,6] + 21.73248 SCM[6,0] + 21.73248 SCM[6,1]
   + 0.9251396 SCM[6,2] + 0.9251396 SCM[6,3] + 0.9251396 SCM[6,4]
   + 0.430122 SCM[6,5] + 0.105644 SCM[6,6] + 59.59008 SCM[7,0]
   + 59.59008 SCM[7,1] + 2.5367166 SCM[7,2] + 2.5367166 SCM[7,3]
   + 2.5367166 SCM[7,4] + 1.179387 SCM[7,5] + 0.289674 SCM[7,6]
   + 36.89928 SCM[8,0] + 36.89928 SCM[8,1] + 1.57078185 SCM[8,2]
   + 1.57078185 SCM[8,3] + 1.57078185 SCM[8,4] + 0.73029825 SCM[8,5]
   + 0.1793715 SCM[8,6]
Subject To
 Const1a[0]: - 200000 ODM[0] + SCM[0,0] + SCM[0,1] + SCM[0,2] + SCM[0,3]
   + SCM[0,4] + SCM[0,5] + SCM[0,6] >= 0
 Const1a[1]: - 200000 ODM[1] + SCM[1,0] + SCM[1,1] + SCM[1,2] + SCM[1,3]
   + SCM[1,4] + SCM[1,5] + SCM[1,6] >= 0
 Const1a[2]: - 200000 ODM[2] + SCM[2,0] + SCM[2,1] + SCM[2,2] + SCM[2,3]
   + SCM[2,4] + SCM[2,5] + SCM[2,6] >= 0
 Const1a[3]: - 200000 ODM[3] + SCM[3,0] + SCM[3,1] + SCM[3,2] + SCM[3,3]
   + SCM[3,4] + SCM[3,5] + SCM[3,6] >= 0
 Const1a[4]: - 200000 ODM[4] + SCM[4,0] + SCM[4,1] + SCM[4,2] + SCM[4,3]
   + SCM[4,4] + SCM[4,5] + SCM[4,6] >= 0
 Const1a[5]: - 200000 ODM[5] + SCM[5,0] + SCM[5,1] + SCM[5,2] + SCM[5,3]
   + SCM[5,4] + SCM[5,5] + SCM[5,6] >= 0
 Const1a[6]: - 200000 ODM[6] + SCM[6,0] + SCM[6,1] + SCM[6,2] + SCM[6,3]
   + SCM[6,4] + SCM[6,5] + SCM[6,6] >= 0
 Const1a[7]: - 200000 ODM[7] + SCM[7,0] + SCM[7,1] + SCM[7,2] + SCM[7,3]
   + SCM[7,4] + SCM[7,5] + SCM[7,6] >= 0
 Const1a[8]: - 200000 ODM[8] + SCM[8,0] + SCM[8,1] + SCM[8,2] + SCM[8,3]
   + SCM[8,4] + SCM[8,5] + SCM[8,6] >= 0
 Const1b[0]: - 600000 ODM[0] + SCM[0,0] + SCM[0,1] + SCM[0,2] + SCM[0,3]
   + SCM[0,4] + SCM[0,5] + SCM[0,6] <= 0
 Const1b[1]: - 600000 ODM[1] + SCM[1,0] + SCM[1,1] + SCM[1,2] + SCM[1,3]
   + SCM[1,4] + SCM[1,5] + SCM[1,6] <= 0
 Const1b[2]: - 600000 ODM[2] + SCM[2,0] + SCM[2,1] + SCM[2,2] + SCM[2,3]
   + SCM[2,4] + SCM[2,5] + SCM[2,6] <= 0
 Const1b[3]: - 600000 ODM[3] + SCM[3,0] + SCM[3,1] + SCM[3,2] + SCM[3,3]
   + SCM[3,4] + SCM[3,5] + SCM[3,6] <= 0
 Const1b[4]: - 600000 ODM[4] + SCM[4,0] + SCM[4,1] + SCM[4,2] + SCM[4,3]
   + SCM[4,4] + SCM[4,5] + SCM[4,6] <= 0
 Const1b[5]: - 600000 ODM[5] + SCM[5,0] + SCM[5,1] + SCM[5,2] + SCM[5,3]
   + SCM[5,4] + SCM[5,5] + SCM[5,6] <= 0
 Const1b[6]: - 600000 ODM[6] + SCM[6,0] + SCM[6,1] + SCM[6,2] + SCM[6,3]
   + SCM[6,4] + SCM[6,5] + SCM[6,6] <= 0
 Const1b[7]: - 600000 ODM[7] + SCM[7,0] + SCM[7,1] + SCM[7,2] + SCM[7,3]
   + SCM[7,4] + SCM[7,5] + SCM[7,6] <= 0
 Const1b[8]: - 600000 ODM[8] + SCM[8,0] + SCM[8,1] + SCM[8,2] + SCM[8,3]
   + SCM[8,4] + SCM[8,5] + SCM[8,6] <= 0
 Const2a1: SCM[0,0] + SCM[0,1] + SCM[1,0] + SCM[1,1] + SCM[2,0] + SCM[2,1]
   + SCM[3,0] + SCM[3,1] + SCM[4,0] + SCM[4,1] + SCM[5,0] + SCM[5,1]
   + SCM[6,0] + SCM[6,1] >= 46000
 Const2b1: SCM[0,2] + SCM[0,3] + SCM[0,4] + SCM[1,2] + SCM[1,3] + SCM[1,4]
   + SCM[2,2] + SCM[2,3] + SCM[2,4] + SCM[3,2] + SCM[3,3] + SCM[3,4]
   + SCM[4,2] + SCM[4,3] + SCM[4,4] + SCM[5,2] + SCM[5,3] + SCM[5,4]
   + SCM[6,2] + SCM[6,3] + SCM[6,4] >= 92000
 Const2c1: SCM[0,5] + SCM[1,5] + SCM[2,5] + SCM[3,5] + SCM[4,5] + SCM[5,5]
   + SCM[6,5] >= 138000
 Const2a2: SCM[7,0] + SCM[7,1] + SCM[8,0] + SCM[8,1] >= 53000
 Const2b2: SCM[7,2] + SCM[7,3] + SCM[7,4] + SCM[8,2] + SCM[8,3] + SCM[8,4]
   >= 79500
 Const2c2: SCM[7,5] + SCM[8,5] >= 79500
 Const3-[0]: SCM[4,0] = 0
 Const3-[1]: SCM[4,1] = 0
 Const3-[5]: SCM[4,5] = 0
 Const3-[6]: SCM[4,6] = 0
 Const4-[2]: SCM[5,2] = 0
 Const4-[3]: SCM[5,3] = 0
 Const4-[4]: SCM[5,4] = 0
 Const4-[5]: SCM[5,5] = 0
 Const5: 3400.2 SCM[0,0] + 3541.88 SCM[0,1] + 2119.41 SCM[0,2]
   + 2098.16 SCM[0,3] + 2089.66 SCM[0,4] + 2076.91 SCM[0,5]
   + 2051.41 SCM[0,6] + 4804.24 SCM[1,0] + 5059.26 SCM[1,1]
   + 2409.85 SCM[1,2] + 2381.51 SCM[1,3] + 2378.68 SCM[1,4]
   + 2381.51 SCM[1,5] + 2313.51 SCM[1,6] + 4849.28 SCM[2,0]
   + 5075.97 SCM[2,1] + 2738.25 SCM[2,2] + 2709.91 SCM[2,3]
   + 2707.08 SCM[2,4] + 2709.91 SCM[2,5] + 2654.66 SCM[2,6]
   + 3392.9 SCM[3,0] + 3534.58 SCM[3,1] + 2112.11 SCM[3,2]
   + 2092.28 SCM[3,3] + 2090.86 SCM[3,4] + 2069.61 SCM[3,5]
   + 2044.11 SCM[3,6] + 9.9999999e+07 SCM[4,0] + 9.9999999e+07 SCM[4,1]
   + 2923.82 SCM[4,2] + 2909.65 SCM[4,3] + 2902.57 SCM[4,4]
   + 9.9999999e+07 SCM[4,5] + 9.9999999e+07 SCM[4,6] + 5680.08 SCM[5,0]
   + 5963.44 SCM[5,1] + 9.9999999e+07 SCM[5,2] + 9.9999999e+07 SCM[5,3]
   + 9.9999999e+07 SCM[5,4] + 9.9999999e+07 SCM[5,5] + 2779.89 SCM[5,6]
   + 4392.08 SCM[6,0] + 4604.6 SCM[6,1] + 2281.05 SCM[6,2]
   + 2252.71 SCM[6,3] + 2247.04 SCM[6,4] + 2254.13 SCM[6,5]
   + 2186.12 SCM[6,6] + 2880.6 SCM[7,0] + 2986.86 SCM[7,1]
   + 1920.01 SCM[7,2] + 1904.07 SCM[7,3] + 1897.7 SCM[7,4]
   + 1888.13 SCM[7,5] + 1869 SCM[7,6] + 3909.08 SCM[8,0] + 4100.35 SCM[8,1]
   + 2113.29 SCM[8,2] + 2092.03 SCM[8,3] + 2089.91 SCM[8,4]
   + 2092.03 SCM[8,5] + 2041.03 SCM[8,6] <= 3e+09
 Const6a: SCM[0,0] + SCM[0,1] + SCM[0,2] + SCM[0,3] + SCM[0,4] + SCM[0,5]
   + SCM[0,6] + SCM[1,0] + SCM[1,1] + SCM[1,2] + SCM[1,3] + SCM[1,4]
   + SCM[1,5] + SCM[1,6] + SCM[2,0] + SCM[2,1] + SCM[2,2] + SCM[2,3]
   + SCM[2,4] + SCM[2,5] + SCM[2,6] + SCM[3,0] + SCM[3,1] + SCM[3,2]
   + SCM[3,3] + SCM[3,4] + SCM[3,5] + SCM[3,6] + SCM[4,0] + SCM[4,1]
   + SCM[4,2] + SCM[4,3] + SCM[4,4] + SCM[4,5] + SCM[4,6] + SCM[5,0]
   + SCM[5,1] + SCM[5,2] + SCM[5,3] + SCM[5,4] + SCM[5,5] + SCM[5,6]
   + SCM[6,0] + SCM[6,1] + SCM[6,2] + SCM[6,3] + SCM[6,4] + SCM[6,5]
   + SCM[6,6] = 920000
 Const6b: SCM[7,0] + SCM[7,1] + SCM[7,2] + SCM[7,3] + SCM[7,4] + SCM[7,5]
   + SCM[7,6] + SCM[8,0] + SCM[8,1] + SCM[8,2] + SCM[8,3] + SCM[8,4]
   + SCM[8,5] + SCM[8,6] = 530000
Bounds
Binaries
 ODM[0] ODM[1] ODM[2] ODM[3] ODM[4] ODM[5] ODM[6] ODM[7] ODM[8]
End
